
Gurobi 9.5.0 (mac64[arm], C++) logging started Sun Jan 23 15:10:28 2022


Gurobi 9.5.0 (mac64[arm], C++) logging started Sun Jan 23 15:10:28 2022


Gurobi 9.5.0 (mac64[arm], C++) logging started Sun Jan 23 15:10:28 2022


Gurobi 9.5.0 (mac64[arm], C++) logging started Sun Jan 23 15:10:28 2022


Gurobi 9.5.0 (mac64[arm], C++) logging started Sun Jan 23 15:10:28 2022


Gurobi 9.5.0 (mac64[arm], C++) logging started Sun Jan 23 15:10:28 2022


Gurobi 9.5.0 (mac64[arm], C++) logging started Sun Jan 23 15:10:28 2022


Gurobi 9.5.0 (mac64[arm], C++) logging started Sun Jan 23 15:10:28 2022


Gurobi 9.5.0 (mac64[arm], C++) logging started Sun Jan 23 15:10:28 2022


Gurobi 9.5.0 (mac64[arm], C++) logging started Sun Jan 23 15:10:28 2022


Gurobi 9.5.0 (mac64[arm], C++) logging started Sun Jan 23 15:10:28 2022


Gurobi 9.5.0 (mac64[arm], C++) logging started Sun Jan 23 15:10:28 2022


Gurobi 9.5.0 (mac64[arm], C++) logging started Sun Jan 23 15:10:28 2022


Gurobi 9.5.0 (mac64[arm], C++) logging started Sun Jan 23 15:10:28 2022


Gurobi 9.5.0 (mac64[arm], C++) logging started Sun Jan 23 15:10:28 2022


Gurobi 9.5.0 (mac64[arm], C++) logging started Sun Jan 23 15:10:28 2022


Gurobi 9.5.0 (mac64[arm], C++) logging started Sun Jan 23 15:10:28 2022


Gurobi 9.5.0 (mac64[arm], C++) logging started Sun Jan 23 15:10:28 2022


Gurobi 9.5.0 (mac64[arm], C++) logging started Sun Jan 23 15:10:28 2022


Gurobi 9.5.0 (mac64[arm], C++) logging started Sun Jan 23 15:10:28 2022


Gurobi 9.5.0 (mac64[arm], C++) logging started Sun Jan 23 15:10:28 2022


Gurobi 9.5.0 (mac64[arm], C++) logging started Sun Jan 23 15:10:28 2022


Gurobi 9.5.0 (mac64[arm], C++) logging started Sun Jan 23 15:10:28 2022


Gurobi 9.5.0 (mac64[arm], C++) logging started Sun Jan 23 15:10:28 2022


Gurobi 9.5.0 (mac64[arm], C++) logging started Sun Jan 23 15:10:28 2022


Gurobi 9.5.0 (mac64[arm], C++) logging started Sun Jan 23 15:10:28 2022


Gurobi 9.5.0 (mac64[arm], C++) logging started Sun Jan 23 15:10:28 2022


Gurobi 9.5.0 (mac64[arm], C++) logging started Sun Jan 23 15:10:28 2022


Gurobi 9.5.0 (mac64[arm], C++) logging started Sun Jan 23 15:10:28 2022


Gurobi 9.5.0 (mac64[arm], C++) logging started Sun Jan 23 15:10:28 2022


Gurobi 9.5.0 (mac64[arm], C++) logging started Sun Jan 23 15:10:28 2022


Gurobi 9.5.0 (mac64[arm], C++) logging started Sun Jan 23 15:10:28 2022


Gurobi 9.5.0 (mac64[arm], C++) logging started Sun Jan 23 15:10:28 2022


Gurobi 9.5.0 (mac64[arm], C++) logging started Sun Jan 23 15:10:28 2022


Gurobi 9.5.0 (mac64[arm], C++) logging started Sun Jan 23 15:10:28 2022


Gurobi 9.5.0 (mac64[arm], C++) logging started Sun Jan 23 15:10:28 2022


Gurobi 9.5.0 (mac64[arm], C++) logging started Sun Jan 23 15:10:28 2022


Gurobi 9.5.0 (mac64[arm], C++) logging started Sun Jan 23 15:10:28 2022


Gurobi 9.5.0 (mac64[arm], C++) logging started Sun Jan 23 15:10:28 2022


Gurobi 9.5.0 (mac64[arm], C++) logging started Sun Jan 23 15:10:28 2022


Gurobi 9.5.0 (mac64[arm], C++) logging started Sun Jan 23 15:10:28 2022


Gurobi 9.5.0 (mac64[arm], C++) logging started Sun Jan 23 15:10:28 2022


Gurobi 9.5.0 (mac64[arm], C++) logging started Sun Jan 23 15:10:28 2022


Gurobi 9.5.0 (mac64[arm], C++) logging started Sun Jan 23 15:10:28 2022


Gurobi 9.5.0 (mac64[arm], C++) logging started Sun Jan 23 15:10:28 2022


Gurobi 9.5.0 (mac64[arm], C++) logging started Sun Jan 23 15:10:28 2022


Gurobi 9.5.0 (mac64[arm], C++) logging started Sun Jan 23 15:10:28 2022


Gurobi 9.5.0 (mac64[arm], C++) logging started Sun Jan 23 15:10:28 2022


Gurobi 9.5.0 (mac64[arm], C++) logging started Sun Jan 23 15:10:28 2022


Gurobi 9.5.0 (mac64[arm], C++) logging started Sun Jan 23 15:10:28 2022


Gurobi 9.5.0 (mac64[arm], C++) logging started Sun Jan 23 15:10:28 2022


Gurobi 9.5.0 (mac64[arm], C++) logging started Sun Jan 23 15:10:28 2022


Gurobi 9.5.0 (mac64[arm], C++) logging started Sun Jan 23 15:10:28 2022


Gurobi 9.5.0 (mac64[arm], C++) logging started Sun Jan 23 15:10:28 2022


Gurobi 9.5.0 (mac64[arm], C++) logging started Sun Jan 23 15:10:28 2022


Gurobi 9.5.0 (mac64[arm], C++) logging started Sun Jan 23 15:10:28 2022


Gurobi 9.5.0 (mac64[arm], C++) logging started Sun Jan 23 15:10:28 2022


Gurobi 9.5.0 (mac64[arm], C++) logging started Sun Jan 23 15:10:28 2022


Gurobi 9.5.0 (mac64[arm], C++) logging started Sun Jan 23 15:10:28 2022


Gurobi 9.5.0 (mac64[arm], C++) logging started Sun Jan 23 15:10:28 2022


Gurobi 9.5.0 (mac64[arm], C++) logging started Sun Jan 23 15:10:28 2022


Gurobi 9.5.0 (mac64[arm], C++) logging started Sun Jan 23 15:10:28 2022


Gurobi 9.5.0 (mac64[arm], C++) logging started Sun Jan 23 15:10:28 2022


Gurobi 9.5.0 (mac64[arm], C++) logging started Sun Jan 23 15:10:28 2022


Gurobi 9.5.0 (mac64[arm], C++) logging started Sun Jan 23 15:14:42 2022


Gurobi 9.5.0 (mac64[arm], C++) logging started Sun Jan 23 15:14:42 2022


Gurobi 9.5.0 (mac64[arm], C++) logging started Sun Jan 23 15:14:42 2022


Gurobi 9.5.0 (mac64[arm], C++) logging started Sun Jan 23 15:14:42 2022


Gurobi 9.5.0 (mac64[arm], C++) logging started Sun Jan 23 15:14:42 2022


Gurobi 9.5.0 (mac64[arm], C++) logging started Sun Jan 23 15:14:42 2022


Gurobi 9.5.0 (mac64[arm], C++) logging started Sun Jan 23 15:14:42 2022


Gurobi 9.5.0 (mac64[arm], C++) logging started Sun Jan 23 15:14:42 2022


Gurobi 9.5.0 (mac64[arm], C++) logging started Sun Jan 23 15:14:42 2022


Gurobi 9.5.0 (mac64[arm], C++) logging started Sun Jan 23 15:14:42 2022


Gurobi 9.5.0 (mac64[arm], C++) logging started Sun Jan 23 15:14:42 2022


Gurobi 9.5.0 (mac64[arm], C++) logging started Sun Jan 23 15:14:42 2022


Gurobi 9.5.0 (mac64[arm], C++) logging started Sun Jan 23 15:14:42 2022


Gurobi 9.5.0 (mac64[arm], C++) logging started Sun Jan 23 15:14:42 2022


Gurobi 9.5.0 (mac64[arm], C++) logging started Sun Jan 23 15:14:42 2022


Gurobi 9.5.0 (mac64[arm], C++) logging started Sun Jan 23 15:14:42 2022


Gurobi 9.5.0 (mac64[arm], C++) logging started Sun Jan 23 15:14:42 2022


Gurobi 9.5.0 (mac64[arm], C++) logging started Sun Jan 23 15:14:42 2022


Gurobi 9.5.0 (mac64[arm], C++) logging started Sun Jan 23 15:14:42 2022


Gurobi 9.5.0 (mac64[arm], C++) logging started Sun Jan 23 15:14:42 2022


Gurobi 9.5.0 (mac64[arm], C++) logging started Sun Jan 23 15:14:42 2022


Gurobi 9.5.0 (mac64[arm], C++) logging started Sun Jan 23 15:14:42 2022


Gurobi 9.5.0 (mac64[arm], C++) logging started Sun Jan 23 15:14:42 2022


Gurobi 9.5.0 (mac64[arm], C++) logging started Sun Jan 23 15:14:42 2022


Gurobi 9.5.0 (mac64[arm], C++) logging started Sun Jan 23 15:14:42 2022


Gurobi 9.5.0 (mac64[arm], C++) logging started Sun Jan 23 15:14:42 2022


Gurobi 9.5.0 (mac64[arm], C++) logging started Sun Jan 23 15:14:42 2022


Gurobi 9.5.0 (mac64[arm], C++) logging started Sun Jan 23 15:14:42 2022


Gurobi 9.5.0 (mac64[arm], C++) logging started Sun Jan 23 15:14:42 2022


Gurobi 9.5.0 (mac64[arm], C++) logging started Sun Jan 23 15:14:42 2022


Gurobi 9.5.0 (mac64[arm], C++) logging started Sun Jan 23 15:14:42 2022


Gurobi 9.5.0 (mac64[arm], C++) logging started Sun Jan 23 15:14:42 2022


Gurobi 9.5.0 (mac64[arm], C++) logging started Sun Jan 23 15:14:42 2022


Gurobi 9.5.0 (mac64[arm], C++) logging started Sun Jan 23 15:14:42 2022


Gurobi 9.5.0 (mac64[arm], C++) logging started Sun Jan 23 15:14:42 2022


Gurobi 9.5.0 (mac64[arm], C++) logging started Sun Jan 23 15:14:42 2022


Gurobi 9.5.0 (mac64[arm], C++) logging started Sun Jan 23 15:14:42 2022


Gurobi 9.5.0 (mac64[arm], C++) logging started Sun Jan 23 15:14:42 2022


Gurobi 9.5.0 (mac64[arm], C++) logging started Sun Jan 23 15:14:42 2022


Gurobi 9.5.0 (mac64[arm], C++) logging started Sun Jan 23 15:14:42 2022


Gurobi 9.5.0 (mac64[arm], C++) logging started Sun Jan 23 15:14:42 2022


Gurobi 9.5.0 (mac64[arm], C++) logging started Sun Jan 23 15:14:42 2022


Gurobi 9.5.0 (mac64[arm], C++) logging started Sun Jan 23 15:14:42 2022


Gurobi 9.5.0 (mac64[arm], C++) logging started Sun Jan 23 15:14:42 2022


Gurobi 9.5.0 (mac64[arm], C++) logging started Sun Jan 23 15:14:42 2022


Gurobi 9.5.0 (mac64[arm], C++) logging started Sun Jan 23 15:14:42 2022


Gurobi 9.5.0 (mac64[arm], C++) logging started Sun Jan 23 15:14:42 2022


Gurobi 9.5.0 (mac64[arm], C++) logging started Sun Jan 23 15:14:42 2022


Gurobi 9.5.0 (mac64[arm], C++) logging started Sun Jan 23 15:14:42 2022


Gurobi 9.5.0 (mac64[arm], C++) logging started Sun Jan 23 15:14:42 2022


Gurobi 9.5.0 (mac64[arm], C++) logging started Sun Jan 23 15:14:42 2022


Gurobi 9.5.0 (mac64[arm], C++) logging started Sun Jan 23 15:14:42 2022


Gurobi 9.5.0 (mac64[arm], C++) logging started Sun Jan 23 15:14:42 2022


Gurobi 9.5.0 (mac64[arm], C++) logging started Sun Jan 23 15:14:42 2022


Gurobi 9.5.0 (mac64[arm], C++) logging started Sun Jan 23 15:14:42 2022


Gurobi 9.5.0 (mac64[arm], C++) logging started Sun Jan 23 15:14:42 2022


Gurobi 9.5.0 (mac64[arm], C++) logging started Sun Jan 23 15:14:42 2022


Gurobi 9.5.0 (mac64[arm], C++) logging started Sun Jan 23 15:14:42 2022


Gurobi 9.5.0 (mac64[arm], C++) logging started Sun Jan 23 15:14:42 2022


Gurobi 9.5.0 (mac64[arm], C++) logging started Sun Jan 23 15:14:42 2022


Gurobi 9.5.0 (mac64[arm], C++) logging started Sun Jan 23 15:14:42 2022


Gurobi 9.5.0 (mac64[arm], C++) logging started Sun Jan 23 15:14:42 2022


Gurobi 9.5.0 (mac64[arm], C++) logging started Sun Jan 23 15:14:42 2022


Gurobi 9.5.0 (mac64[arm], C++) logging started Sun Jan 23 15:14:42 2022


Gurobi 9.5.0 (mac64[arm], C++) logging started Sun Jan 23 15:15:01 2022


Gurobi 9.5.0 (mac64[arm], C++) logging started Sun Jan 23 15:15:01 2022


Gurobi 9.5.0 (mac64[arm], C++) logging started Sun Jan 23 15:15:01 2022


Gurobi 9.5.0 (mac64[arm], C++) logging started Sun Jan 23 15:15:01 2022


Gurobi 9.5.0 (mac64[arm], C++) logging started Sun Jan 23 15:15:01 2022


Gurobi 9.5.0 (mac64[arm], C++) logging started Sun Jan 23 15:15:01 2022


Gurobi 9.5.0 (mac64[arm], C++) logging started Sun Jan 23 15:15:01 2022


Gurobi 9.5.0 (mac64[arm], C++) logging started Sun Jan 23 15:15:01 2022


Gurobi 9.5.0 (mac64[arm], C++) logging started Sun Jan 23 15:15:01 2022


Gurobi 9.5.0 (mac64[arm], C++) logging started Sun Jan 23 15:15:01 2022


Gurobi 9.5.0 (mac64[arm], C++) logging started Sun Jan 23 15:15:01 2022


Gurobi 9.5.0 (mac64[arm], C++) logging started Sun Jan 23 15:15:01 2022


Gurobi 9.5.0 (mac64[arm], C++) logging started Sun Jan 23 15:15:01 2022


Gurobi 9.5.0 (mac64[arm], C++) logging started Sun Jan 23 15:15:01 2022


Gurobi 9.5.0 (mac64[arm], C++) logging started Sun Jan 23 15:15:01 2022


Gurobi 9.5.0 (mac64[arm], C++) logging started Sun Jan 23 15:15:01 2022


Gurobi 9.5.0 (mac64[arm], C++) logging started Sun Jan 23 15:15:01 2022


Gurobi 9.5.0 (mac64[arm], C++) logging started Sun Jan 23 15:15:01 2022


Gurobi 9.5.0 (mac64[arm], C++) logging started Sun Jan 23 15:15:01 2022


Gurobi 9.5.0 (mac64[arm], C++) logging started Sun Jan 23 15:15:01 2022


Gurobi 9.5.0 (mac64[arm], C++) logging started Sun Jan 23 15:15:01 2022


Gurobi 9.5.0 (mac64[arm], C++) logging started Sun Jan 23 15:15:01 2022


Gurobi 9.5.0 (mac64[arm], C++) logging started Sun Jan 23 15:15:01 2022


Gurobi 9.5.0 (mac64[arm], C++) logging started Sun Jan 23 15:15:01 2022


Gurobi 9.5.0 (mac64[arm], C++) logging started Sun Jan 23 15:15:01 2022


Gurobi 9.5.0 (mac64[arm], C++) logging started Sun Jan 23 15:15:01 2022


Gurobi 9.5.0 (mac64[arm], C++) logging started Sun Jan 23 15:15:01 2022


Gurobi 9.5.0 (mac64[arm], C++) logging started Sun Jan 23 15:15:01 2022


Gurobi 9.5.0 (mac64[arm], C++) logging started Sun Jan 23 15:15:01 2022


Gurobi 9.5.0 (mac64[arm], C++) logging started Sun Jan 23 15:15:01 2022


Gurobi 9.5.0 (mac64[arm], C++) logging started Sun Jan 23 15:15:01 2022


Gurobi 9.5.0 (mac64[arm], C++) logging started Sun Jan 23 15:15:01 2022


Gurobi 9.5.0 (mac64[arm], C++) logging started Sun Jan 23 15:15:01 2022


Gurobi 9.5.0 (mac64[arm], C++) logging started Sun Jan 23 15:15:01 2022


Gurobi 9.5.0 (mac64[arm], C++) logging started Sun Jan 23 15:15:01 2022


Gurobi 9.5.0 (mac64[arm], C++) logging started Sun Jan 23 15:15:01 2022


Gurobi 9.5.0 (mac64[arm], C++) logging started Sun Jan 23 15:15:01 2022


Gurobi 9.5.0 (mac64[arm], C++) logging started Sun Jan 23 15:15:01 2022


Gurobi 9.5.0 (mac64[arm], C++) logging started Sun Jan 23 15:15:01 2022


Gurobi 9.5.0 (mac64[arm], C++) logging started Sun Jan 23 15:15:01 2022


Gurobi 9.5.0 (mac64[arm], C++) logging started Sun Jan 23 15:15:01 2022


Gurobi 9.5.0 (mac64[arm], C++) logging started Sun Jan 23 15:15:01 2022


Gurobi 9.5.0 (mac64[arm], C++) logging started Sun Jan 23 15:15:01 2022


Gurobi 9.5.0 (mac64[arm], C++) logging started Sun Jan 23 15:15:01 2022


Gurobi 9.5.0 (mac64[arm], C++) logging started Sun Jan 23 15:15:01 2022


Gurobi 9.5.0 (mac64[arm], C++) logging started Sun Jan 23 15:15:01 2022


Gurobi 9.5.0 (mac64[arm], C++) logging started Sun Jan 23 15:15:01 2022


Gurobi 9.5.0 (mac64[arm], C++) logging started Sun Jan 23 15:15:01 2022


Gurobi 9.5.0 (mac64[arm], C++) logging started Sun Jan 23 15:15:01 2022


Gurobi 9.5.0 (mac64[arm], C++) logging started Sun Jan 23 15:15:01 2022


Gurobi 9.5.0 (mac64[arm], C++) logging started Sun Jan 23 15:15:01 2022


Gurobi 9.5.0 (mac64[arm], C++) logging started Sun Jan 23 15:15:01 2022


Gurobi 9.5.0 (mac64[arm], C++) logging started Sun Jan 23 15:15:01 2022


Gurobi 9.5.0 (mac64[arm], C++) logging started Sun Jan 23 15:15:01 2022


Gurobi 9.5.0 (mac64[arm], C++) logging started Sun Jan 23 15:15:01 2022


Gurobi 9.5.0 (mac64[arm], C++) logging started Sun Jan 23 15:15:01 2022


Gurobi 9.5.0 (mac64[arm], C++) logging started Sun Jan 23 15:15:01 2022


Gurobi 9.5.0 (mac64[arm], C++) logging started Sun Jan 23 15:15:01 2022


Gurobi 9.5.0 (mac64[arm], C++) logging started Sun Jan 23 15:15:01 2022


Gurobi 9.5.0 (mac64[arm], C++) logging started Sun Jan 23 15:15:01 2022


Gurobi 9.5.0 (mac64[arm], C++) logging started Sun Jan 23 15:15:01 2022


Gurobi 9.5.0 (mac64[arm], C++) logging started Sun Jan 23 15:15:01 2022


Gurobi 9.5.0 (mac64[arm], C++) logging started Sun Jan 23 15:15:01 2022


Gurobi 9.5.0 (mac64[arm], C++) logging started Sun Jan 23 15:15:01 2022

